language ESSENCE' 1.0

letting n_courses be 172
letting n_periods be 26
letting prerequisite_RelationAsSet_Explicit_1 be
        [1, 1, 1, 1, 1, 1, 1, 1, 1, 1, 2, 2, 2, 2, 3, 3, 3, 3, 3, 3, 3, 4, 4, 4, 5, 5, 5, 5, 6, 6, 6, 6, 6, 6, 6, 6, 7,
         7, 7, 7, 8, 9, 9, 9, 10, 10, 10, 10, 10, 10, 10, 10, 11, 11, 11, 11, 11, 12, 12, 12, 12, 12, 13, 13, 13, 13,
         13, 14, 14, 14, 15, 15, 15, 16, 16, 16, 16, 16, 17, 17, 17, 17, 17, 17, 17, 17, 18, 18, 18, 18, 18, 19, 19, 19,
         19, 20, 20, 20, 20, 20, 21, 21, 22, 22, 22, 22, 22, 22, 22, 22, 23, 23, 24, 24, 24, 24, 24, 24, 24, 24, 24, 24,
         24, 25, 25, 25, 25, 25, 25, 25, 26, 26, 26, 26, 26, 26, 26, 26, 27, 27, 27, 27, 28, 28, 28, 28, 29, 29, 29, 29,
         29, 29, 30, 30, 30, 30, 30, 30, 30, 30, 30, 30, 30, 32, 32, 34, 35, 35, 35, 36, 37, 38, 40, 40, 43, 43, 44, 45,
         46, 46, 47, 51, 55, 56, 59, 61, 61, 62, 62, 63, 66, 67, 67, 68, 68, 68, 71, 71, 72, 72, 73, 75, 76, 79, 79, 80,
         82, 82, 86, 87, 88, 89, 90, 90, 93, 95, 98, 99, 99, 100, 100, 102, 102, 102, 102, 103, 104, 104, 105, 108, 109,
         112, 112, 112, 113, 113, 113, 113, 115, 116, 118, 119, 120, 121, 122, 124, 124, 125, 126, 127, 129, 134, 134,
         134, 134, 134, 135;
             int(1..257)]
letting prerequisite_RelationAsSet_Explicit_2 be
        [33, 37, 44, 53, 95, 97, 115, 116, 117, 133, 47, 48, 50, 131, 71, 77, 90, 99, 112, 124, 127, 60, 109, 135, 40,
         75, 106, 133, 36, 48, 49, 58, 90, 98, 109, 120, 48, 62, 107, 126, 34, 108, 119, 125, 44, 50, 66, 68, 74, 128,
         129, 138, 43, 55, 57, 123, 130, 57, 68, 96, 105, 126, 53, 88, 89, 92, 94, 65, 79, 86, 117, 121, 134, 38, 94,
         101, 105, 132, 41, 67, 69, 80, 87, 91, 98, 109, 35, 41, 105, 132, 137, 93, 109, 111, 135, 32, 39, 61, 64, 104,
         45, 136, 34, 52, 70, 72, 83, 84, 113, 122, 36, 59, 42, 46, 58, 59, 73, 76, 77, 105, 107, 110, 133, 33, 41, 54,
         74, 77, 85, 126, 37, 56, 84, 86, 101, 117, 131, 135, 43, 49, 61, 78, 51, 66, 82, 103, 31, 53, 61, 75, 112, 118,
         31, 47, 63, 81, 84, 100, 102, 103, 114, 120, 134, 143, 150, 159, 149, 162, 165, 152, 149, 146, 139, 154, 165,
         171, 172, 156, 151, 157, 162, 159, 140, 169, 159, 161, 165, 164, 165, 160, 168, 154, 166, 146, 155, 164, 161,
         166, 144, 148, 141, 147, 166, 140, 157, 165, 150, 151, 165, 170, 160, 169, 144, 163, 148, 158, 153, 154, 167,
         149, 150, 154, 158, 165, 167, 150, 163, 169, 142, 153, 147, 145, 152, 166, 142, 145, 159, 162, 143, 149, 168,
         141, 163, 142, 170, 140, 144, 170, 166, 168, 168, 149, 151, 152, 156, 172, 170;
             int(1..257)]
letting course_load_Function1D be
        [6, 2, 8, 7, 5, 3, 6, 3, 2, 5, 7, 2, 2, 6, 4, 6, 4, 3, 3, 3, 2, 4, 5, 5, 4, 7, 2, 3, 8, 8, 6, 8, 8, 5, 4, 6, 5,
         5, 4, 5, 2, 3, 6, 6, 6, 2, 3, 2, 2, 8, 2, 2, 3, 8, 2, 6, 4, 6, 8, 7, 6, 3, 4, 7, 4, 6, 2, 8, 7, 7, 5, 6, 3, 6,
         7, 5, 5, 5, 3, 2, 2, 7, 5, 4, 5, 5, 8, 2, 2, 6, 5, 6, 2, 8, 3, 6, 7, 7, 5, 5, 8, 7, 6, 6, 3, 4, 8, 3, 5, 5, 5,
         4, 7, 6, 2, 4, 8, 5, 4, 3, 5, 4, 2, 4, 3, 2, 4, 2, 3, 7, 5, 4, 5, 3, 3, 3, 2, 5, 3, 6, 6, 8, 2, 4, 7, 6, 4, 6,
         6, 2, 5, 5, 3, 2, 4, 7, 2, 3, 7, 7, 2, 6, 6, 7, 5, 4, 5, 4, 5, 6, 3, 7;
             int(1..172)]
letting load_per_period_ub be 49
letting load_per_period_lb be 5
letting courses_per_period_ub be 10
letting courses_per_period_lb be 3
letting fin1 be 257
letting fin2 be 172
letting fin3 be 8
